15
10
0
0
28
35
4
34
5
12
0
18
0
0
8
10
5
0
0
19
0
0
0
8
28
0
0
0
20
35
0
0
15
19
21
5
0
26
5
43
0
8
0
6
29
19
33
9
0
40
8
17
16
12
23
6
0
0
0
25
37
0
0
7
24
0
0
17
36
8
0
0
0
10
10
23
9
32
0
8
0
15
8
5
0
4
18
0
0
16
39
15
5
17
21
10
12
0
24
0
